3 500
1+300+81+304+215+317+319+188+418+43+284+438+150+301+110+209+147+240+223+427+144+178+382+143+476+30+416+27+458+334+327+399+459+270+356+492+172+51+63+251+329+68+491+7+402+352+293+19+67+460+422+205+86+481+168+132+336+450+137+37+379+23+243+149+58+496+121+361+50+3+478+423+373+309+24+77+420+441+250+253+447+213+196+445+369+32+234+437+412+13+140+260+252+291+139+287+347+370+111+388+93+367+392+106+376+2+154+310+408+435+249+397+360+41+457+155+419+341+330+343+396+487+400+177+322+117+189+183+313+54+84+236+417+127+100+468+92+199+359+53+219+222+118+426+157+498+247+377+14+134+8+6+82+469+363+12+207+15+10+283+151+474+298+173+497+282+354+316+296+18+74+138+453+47+184+372+429+64+339+42+185+391+495+115+109+275+239+59+499+385+486+364+340+483+29+145+28+473+488+401+156+262+122+116+101+153+79+305+221+454+202+485+186+56+482+233+490+463+384+142+434+365+66+351+192+228+324+374+390+206+246+187+321+381+346+271+89+126+494+265+216+470+308+394+389+278+227+344+415+375+34+129+378+411+5+362+464+276+302+286+328+500+119+98+325+194+224+318+33+152+201+158+164+48+484+60+123+9+91+61+235+465+479+229+493+307+176+241+386+40+83+76+448+366+182+167+90+204+371+312+95+442+108+78+444+295+289+350+181+128+272+133+245+99+452+220+72+413+306+62+85+395+353+380+16+225+163+323+489+311+160+125+393+195+191+403+124+338+280+22+315+440+218+404+70+169+387+120+97+333+231+26+477+455+65+449+349+131+75+425+104+73+421+31+475+166+232+203+326+342+102+20+405+103+113+135+208+44+357+358+288+256+279+277+320+407+446+35+266+259+80+303+17+480+254+193+248+130+433+190+170+25+255+38+146+11+269+161+439+268+180+285+406+57+226+331+69+431+257+267+471+55+107+162+175+297+36+258+335+348+443+179+290+49+174+332+21+71+410+148+88+299+46+217+39+274+165+197+244+237+337+383+314+52+424+432+171+105+198+242+461+355+409+230+345+96+141+264+368+398+456+87+112+261+159+281+414+263+430+292+114+238+210+212+214+136+45+200+451+94+428+211+466+294+462+472+467+4+273+436
1+300+81+304+215+317+319+188+418+43+284+438+150+301+110+209+147+240+223+427+144+178+382+143+476+30+416+27+458+334+327+399+459+270+356+492+172+51+63+251+329+68+491+7+402+352+293+19+67+460+422+205+86+481+168+132+336+450+137+37+379+23+243+149+58+496+121+361+50+3+478+423+373+309+24+77+420+441+250+253+447+213+196+445+369+32+234+437+412+13+140+260+252+291+139+287+347+370+111+388+93+367+392+106+376+2+154+310+408+435+249+397+360+41+457+155+419+341+330+343+396+487+400+177+322+117+189+183+313+54+84+236+417+127+100+468+92+199+359+53+219+222+118+426+157+498+247+377+14+134+8+6+82+469+363+12+207+15+10+283+151+474+298+173+497+282+354+316+296+18+74+138+453+47+184+372+429+64+339+42+185+391+495+115+109+275+239+59+499+385+486+364+340+483+29+145+28+473+488+401+156+262+122+116+101+153+79+305+221+454+202+485+186+56+482+233+490+463+384+142+434+365+66+351+192+228+324+374+390+206+246+187+321+381+346+271+89+126+494+265+216+470+308+394+389+278+227+344+415+375+34+129+378+411+5+362+464+276+302+286+328+500+119+98+325+194+224+318+33+152+201+158+164+48+484+60+123+9+91+61+235+465+479+229+493+307+176+241+386+40+83+76+448+366+182+167+90+204+371+312+95+442+108+78+444+295+289+350+181+128+272+133+245+99+452+220+72+413+306+62+85+395+353+380+16+225+163+323+489+311+160+125+393+195+191+403+124+338+280+22+315+440+218+404+70+169+387+120+97+333+231+26+477+455+65+449+349+131+75+425+104+73+421+31+475+166+232+203+326+342+102+20+405+103+113+135+208+44+357+358+288+256+279+277+320+407+446+35+266+259+80+303+17+480+254+193+248+130+433+190+170+25+255+38+146+11+269+161+439+268+180+285+406+57+226+331+69+431+257+267+471+55+107+162+175+297+36+258+335+348+443+179+290+49+174+332+21+71+410+148+88+299+46+217+39+274+165+197+244+237+337+383+314+52+424+432+171+105+198+242+461+355+409+230+345+96+141+264+368+398+456+87+112+261+159+281+414+263+430+292+114+238+210+212+214+136+45+200+451+94+428+211+466+294+462+472+467+4+273+436
1+300+81+304+215+317+319+188+418+43+284+438+150+301+110+209+147+240+223+427+144+178+382+143+476+30+416+27+458+334+327+399+459+270+356+492+172+51+63+251+329+68+491+7+402+352+293+19+67+460+422+205+86+481+168+132+336+450+137+37+379+23+243+149+58+496+121+361+50+3+478+423+373+309+24+77+420+441+250+253+447+213+196+445+369+32+234+437+412+13+140+260+252+291+139+287+347+370+111+388+93+367+392+106+376+2+154+310+408+435+249+397+360+41+457+155+419+341+330+343+396+487+400+177+322+117+189+183+313+54+84+236+417+127+100+468+92+199+359+53+219+222+118+426+157+498+247+377+14+134+8+6+82+469+363+12+207+15+10+283+151+474+298+173+497+282+354+316+296+18+74+138+453+47+184+372+429+64+339+42+185+391+495+115+109+275+239+59+499+385+486+364+340+483+29+145+28+473+488+401+156+262+122+116+101+153+79+305+221+454+202+485+186+56+482+233+490+463+384+142+434+365+66+351+192+228+324+374+390+206+246+187+321+381+346+271+89+126+494+265+216+470+308+394+389+278+227+344+415+375+34+129+378+411+5+362+464+276+302+286+328+500+119+98+325+194+224+318+33+152+201+158+164+48+484+60+123+9+91+61+235+465+479+229+493+307+176+241+386+40+83+76+448+366+182+167+90+204+371+312+95+442+108+78+444+295+289+350+181+128+272+133+245+99+452+220+72+413+306+62+85+395+353+380+16+225+163+323+489+311+160+125+393+195+191+403+124+338+280+22+315+440+218+404+70+169+387+120+97+333+231+26+477+455+65+449+349+131+75+425+104+73+421+31+475+166+232+203+326+342+102+20+405+103+113+135+208+44+357+358+288+256+279+277+320+407+446+35+266+259+80+303+17+480+254+193+248+130+433+190+170+25+255+38+146+11+269+161+439+268+180+285+406+57+226+331+69+431+257+267+471+55+107+162+175+297+36+258+335+348+443+179+290+49+174+332+21+71+410+148+88+299+46+217+39+274+165+197+244+237+337+383+314+52+424+432+171+105+198+242+461+355+409+230+345+96+141+264+368+398+456+87+112+261+159+281+414+263+430+292+114+238+210+212+214+136+45+200+451+94+428+211+466+294+462+472+467+4+273+436
